#######################
Slurm job id: 17497813_234
Running on machine: p32
Running cmd: /nfs/shared/static-builds/gurobi1202 SOFTMEMLIMIT=125 MIPFocus=1 Presolve=2 TimeLimit=500 seed=13 /nfs/models/miplib2010/k16x240.mps.bz2
#######################
Set parameter TimeLimit to value 500
Set parameter SoftMemLimit to value 125
Set parameter MIPFocus to value 1
Set parameter LogFile to value 1202-MIPFocus1-Presolve2-TimeLimit500-k16x240-3.log
Set parameter Presolve to value 2
Set parameter Seed to value 13
Using license file /opt/gurobi/gurobi.lic

Gurobi Optimizer version 12.0.2 build v12.0.2rc0 (linux64 - "Ubuntu 22.04.4 LTS")
Copyright (c) 2025, Gurobi Optimization, LLC

Read MPS format model from file /nfs/models/miplib2010/k16x240.mps.bz2
Reading time = 0.00 seconds
k16x240: 256 rows, 480 columns, 960 nonzeros

Using Gurobi shared library /nfs/shared/static-builds/gurobi1202

CPU model: Intel(R) Xeon(R) E-2388G CPU @ 3.20GHz, instruction set [SSE2|AVX|AVX2|AVX512]
Thread count: 8 physical cores, 16 logical processors, using up to 16 threads

Non-default parameters:
TimeLimit  500
SoftMemLimit  125
MIPFocus  1
Presolve  2
Seed  13

Optimize a model with 256 rows, 480 columns and 960 nonzeros
Model fingerprint: 0x4e80885f
Variable types: 240 continuous, 240 integer (240 binary)
Coefficient statistics:
  Matrix range     [1e+00, 1e+03]
  Objective range  [1e+00, 1e+03]
  Bounds range     [1e+00, 1e+03]
  RHS range        [4e+00, 4e+02]
Found heuristic solution: objective 25767.000000
Presolve time: 0.00s
Presolved: 256 rows, 480 columns, 960 nonzeros
Variable types: 240 continuous, 240 integer (240 binary)
Root relaxation presolve removed 241 rows and 240 columns
Root relaxation presolved: 15 rows, 240 columns, 450 nonzeros


Root relaxation: objective 2.769838e+03, 16 iterations, 0.00 seconds (0.00 work units)

    Nodes    |    Current Node    |     Objective Bounds      |     Work
 Expl Unexpl |  Obj  Depth IntInf | Incumbent    BestBd   Gap | It/Node Time

     0     0 2769.83800    0   14 25767.0000 2769.83800  89.3%     -    0s
H    0     0                    11359.000000 2769.83800  75.6%     -    0s
H    0     0                    11350.000000 2769.83800  75.6%     -    0s
H    0     0                    11261.000000 2769.83800  75.4%     -    0s
H    0     0                    11081.000000 2769.83800  75.0%     -    0s
     0     0 8084.69631    0   26 11081.0000 8084.69631  27.0%     -    0s
H    0     0                    11068.000000 8084.69631  27.0%     -    0s
H    0     0                    11037.000000 8084.69631  26.7%     -    0s
H    0     0                    10938.000000 8084.69631  26.1%     -    0s
H    0     0                    10930.000000 8084.69631  26.0%     -    0s
H    0     0                    10848.000000 8084.69631  25.5%     -    0s
     0     0 8528.16906    0   24 10848.0000 8528.16906  21.4%     -    0s
     0     0 8540.71383    0   29 10848.0000 8540.71383  21.3%     -    0s
     0     0 8548.03675    0   29 10848.0000 8548.03675  21.2%     -    0s
     0     0 8710.40146    0   30 10848.0000 8710.40146  19.7%     -    0s
     0     0 8729.03414    0   36 10848.0000 8729.03414  19.5%     -    0s
     0     0 8746.46580    0   33 10848.0000 8746.46580  19.4%     -    0s
     0     0 8757.85983    0   30 10848.0000 8757.85983  19.3%     -    0s
     0     0 8786.38733    0   33 10848.0000 8786.38733  19.0%     -    0s
     0     0 8791.67464    0   38 10848.0000 8791.67464  19.0%     -    0s
     0     0 8797.19812    0   34 10848.0000 8797.19812  18.9%     -    0s
     0     0 8802.77400    0   32 10848.0000 8802.77400  18.9%     -    0s
     0     0 8805.11325    0   34 10848.0000 8805.11325  18.8%     -    0s
     0     0 8887.47515    0   31 10848.0000 8887.47515  18.1%     -    0s
H    0     0                    10846.000000 8887.47515  18.1%     -    0s
     0     0 8898.37761    0   33 10846.0000 8898.37761  18.0%     -    0s
     0     0 8908.31979    0   35 10846.0000 8908.31979  17.9%     -    0s
     0     0 8909.45762    0   36 10846.0000 8909.45762  17.9%     -    0s
     0     0 8909.59421    0   37 10846.0000 8909.59421  17.9%     -    0s
     0     0 9021.85529    0   37 10846.0000 9021.85529  16.8%     -    0s
H    0     0                    10841.000000 9021.85529  16.8%     -    0s
H    0     0                    10765.000000 9021.87044  16.2%     -    0s
H    0     0                    10681.000000 9021.87044  15.5%     -    0s
     0     2 9021.87044    0   37 10681.0000 9021.87044  15.5%     -    0s
H    6     8                    10678.000000 9086.23998  14.9%  36.5    0s
H  852   663                    10674.000000 9298.97937  12.9%  15.7    0s
 36737 17472 9931.98687   31   23 10674.0000 9878.86819  7.45%  18.0    5s
 90719 37314 10169.2197   41   20 10674.0000 10002.0995  6.29%  17.4   10s
 145487 53343 10315.2525   39   13 10674.0000 10068.0117  5.68%  16.8   15s
 202504 66246 10348.6613   38   18 10674.0000 10119.5515  5.19%  16.4   20s
 258234 76432 10393.1050   32   21 10674.0000 10158.3169  4.83%  16.4   25s
 311957 85091 10389.7280   42    7 10674.0000 10193.0260  4.51%  16.3   30s
 369821 91736 10579.9983   41   10 10674.0000 10226.7117  4.19%  16.1   35s
 425003 96476 10555.8915   42    7 10674.0000 10255.3136  3.92%  15.8   40s
 484696 99249 10578.1402   48    4 10674.0000 10284.7558  3.65%  15.6   45s
 545628 100046     cutoff   59      10674.0000 10313.3379  3.38%  15.5   50s
 602196 97581 10456.3151   37   25 10674.0000 10339.6726  3.13%  15.4   55s
 656871 92176     cutoff   34      10674.0000 10366.5726  2.88%  15.5   60s
 712000 83529     cutoff   52      10674.0000 10394.7840  2.62%  15.4   65s
 772142 69414 10573.9342   30   16 10674.0000 10430.6119  2.28%  15.2   70s
 830783 48542     cutoff   57      10674.0000 10474.1328  1.87%  15.1   75s
 894761 10681     cutoff   31      10674.0000 10570.3716  0.97%  14.8   80s

Cutting planes:
  Gomory: 4
  Lift-and-project: 18
  Cover: 10
  Implied bound: 7
  Dual implied bound: 36
  MIR: 123
  Flow cover: 267
  Flow path: 45
  Inf proof: 5
  Network: 64
  Relax-and-lift: 3

Explored 908608 nodes (13283978 simplex iterations) in 80.72 seconds (90.01 work units)
Thread count was 16 (of 16 available processors)

Solution count 10: 10674 10678 10681 ... 11037

Optimal solution found (tolerance 1.00e-04)
Best objective 1.067400000000e+04, best bound 1.067400000000e+04, gap 0.0000%
